data;

set Nodes := 1 2 3 4 5 6 7 8;

/*
1: Rick
2: Negan
3: Carl
4: Glenn
5: Maggie
6: Michonne
7: Daryl
8: Shane
*/

set Arcs :=     
	(1, 2) (1, 3) (1, 4) (1, 5) (1, 6) (1, 7) (1, 8)
           (2, 3) (2, 4) (2, 5) (2, 6) (2, 7) (2, 8)
                  (3, 4) (3, 5) (3, 6) (3, 7) (3, 8)
                         (4, 5) (4, 6) (4, 7) (4, 8)
                                (5, 6) (5, 7) (5, 8)
                                       (6, 7) (6, 8)
                                              (7, 8);


param compatibilityScores:  1        2        3        4       5       6      7       8  :=
    1                       0        2        4        7       4       10     9       9 
    2                       2        0        5        1       10      10     8       4
    3                       4        5        0        3       3       7      2       7
    4                       7        1        3        0       1       4      3       9
    5                       4        10       3        1       0       2      6       10
    6                       10       10       7        4       2       0      3       2
    7                       9        8        2        3       6       3      0       6
    8                       9        4        7        9       10      2      6       0;